%nprocshared=4
%mem=4GB
%chk=cisa.chk
#p HSEh1PBE/GEN PSEUDO=READ SCRF=(Solvent=TetraHydroFuran)

HSE Vanadium 

0 1
V          0.04143       -1.86392        0.15829
O          0.12047       -3.18471       -0.72377
O          0.86368       -0.65993       -1.02051
O         -1.93188       -1.49179        0.12759
O          0.55733       -2.31284        1.80639
N          0.01742        0.30938        1.49963
C          1.92912        0.12392       -0.81210
C          3.12043       -0.12295       -1.52664
C          4.21709        0.71687       -1.32170
H          5.15020        0.55029       -1.85348
C          4.11683        1.76993       -0.42668
C          2.95827        2.03119        0.28213
H          2.91740        2.86814        0.97424
C          1.85083        1.20332        0.08555
C          0.54670        1.47729        0.77569
H         -0.19962        1.75655        0.02242
H          0.65313        2.33740        1.45871
C         -1.34810        0.57714        1.96424
H         -1.37774        1.47229        2.60758
H         -1.67487       -0.27413        2.57265
C         -2.30420        0.74588        0.82056
C         -3.01503        1.90591        0.62368
H         -2.90784        2.76178        1.28312
C         -3.89636        1.98509       -0.46478
C         -4.09685        0.94755       -1.37782
H         -4.78993        1.09092       -2.20079
C         -3.40827       -0.23520       -1.21107
C         -2.50114       -0.36485       -0.08400
C          0.89350       -0.07702        2.60889
H          0.76969        0.58152        3.48530
H          1.92460        0.02722        2.25639
C          0.64961       -1.53040        2.97398
H          1.47438       -1.90128        3.59604
H         -0.27573       -1.66102        3.55195
C          3.18118       -1.27269       -2.48710
H          2.94699       -2.21932       -1.98659
H          4.17293       -1.35488       -2.94184
H          2.44170       -1.15542       -3.28827
C         -3.56491       -1.39663       -2.12900
H         -2.59870       -1.67850       -2.56318
H         -4.26685       -1.17322       -2.93553
H         -3.92026       -2.27585       -1.57851
F         -4.57240        3.11941       -0.63849
F          5.19871        2.57392       -0.23695

V 0
LANL2DZ
****
C H N O F 0
6-31+G*
****

V 0
LANL2DZ





