%nprocshared=4
%mem=2GB
%chk=cisa.chk
#p HSEh1PBE/GEN PSEUDO=READ opt SCRF=(Solvent=TetraHydroFuran)

HSE Vanadium 

0 1
V          0.02735       -1.87849        0.12323
O          0.07982       -3.30002       -0.58459
O          1.22314       -0.92579       -0.82397
O         -1.69234       -1.40364       -0.16822
O          0.51897       -2.33333        1.78057
N         -0.01977        0.30089        1.43029
C          2.14897        0.05252       -0.67636
C          3.40202       -0.14575       -1.30157
C          4.37130        0.85530       -1.18352
H          5.34629        0.74301       -1.64830
C          4.07967        2.00324       -0.45777
C          2.85815        2.20633        0.16548
H          2.67871        3.11888        0.72602
C          1.86814        1.22132        0.05730
C          0.50863        1.45505        0.66934
H         -0.21544        1.66485       -0.12711
H          0.54620        2.35177        1.30889
C         -1.40807        0.57735        1.87324
H         -1.43178        1.48771        2.49324
H         -1.72191       -0.25384        2.51423
C         -2.38214        0.71403        0.73057
C         -3.23653        1.82017        0.64439
H         -3.18984        2.62256        1.37463
C         -4.15137        1.87686       -0.39563
C         -4.25575        0.88223       -1.36025
H         -4.98838        0.97776       -2.15628
C         -3.41359       -0.23253       -1.29417
C         -2.47720       -0.30388       -0.23678
C          0.82934       -0.07099        2.57721
H          0.67243        0.59232        3.44330
H          1.87440        0.02138        2.26995
C          0.54897       -1.52460        2.94886
H          1.33724       -1.91007        3.60630
H         -0.40813       -1.64266        3.47326
C          3.66926       -1.41147       -2.07466
H          3.56454       -2.29584       -1.43479
H          4.67963       -1.40595       -2.49396
H          2.95341       -1.53176       -2.89640
C         -3.49342       -1.34105       -2.31196
H         -2.54203       -1.46067       -2.84423
H         -4.27678       -1.13866       -3.04830
H         -3.70828       -2.30339       -1.83247
F         -4.98339        2.95885       -0.47920
F          5.03940        2.96995       -0.34823

V 0
LANL2DZ
****
C H N O F 0
6-31+G*
****

V 0
LANL2DZ


