%chk=cisa.chk
%mem=4GB
%NProcShared=4
#p HSEh1PBE/GEN PSEUDO=READ guess=read geom=allcheck SCRF=(Solvent=TetraHydroFuran) pop=full iop(3/33=1,3/36=-1)

V 0
LANL2DZ
****
C H N O F 0
6-31+G*
****

V 0
LANL2DZ



