%nprocshared=4
%mem=4GB
%chk=cisa_GS.chk
#P Geom=AllCheck Frequency=(ReadFC,FCHT,SaveNM) NoSymm

cisa_root2.chk





